# -*- conf -*-

echo both

units           real

neighbor        2.5 bin
neigh_modify    delay 4 every 2 check yes

processors       * * 1 grid numa 

atom_style      full
#read_data       sb-cg.data 
read_restart    sb-cg.min.state
include         sb-cg.param 

reset_timestep  0

kspace_style    pppm/cg 1.0e-5
kspace_modify   order 3

velocity        all create 303.0 11111111 mom yes rot yes dist gaussian

fix             mynpt all npt temp 303.0 303.0 400.0 iso 1.0 1.0 1000.0 #drag .01

dump            main all dcd 1000 popc-water.eq.dcd
dump_modify     main unwrap yes

timestep        10.0

thermo          10

run             10000

write_restart   sb-cg.eq.state
