# Generated by CGTools - writelammpsparam on Fri Apr 10 09:56:54 EDT 2015
#pair_style      lj/sdk/coul/long          15.0
#pair_style      lj/sdk                    15.0
#pair_style      hybrid/overlay  lj/sdk 15.0  coul/long 25.0
#pair_style      lj/sdk/gpu                15.0
#pair_style      lj/sdk/coul/long/gpu      15.0
#bond_style      harmonic
#angle_style     sdk
#angle_style     hybrid sdk harmonic
#dihedral_style  charmm
#special_bonds   lj/coul 0.0 0.0 1.0


mass     1   28.0540 # CM2
mass     2   43.0880 # CT
mass     3   29.0620 # CT2
mass     4   54.0460 # W


pair_coeff     1     1    lj9_6    0.2688    4.4159 # CM2 CM2
pair_coeff     1     2    lj9_6    0.3107    4.4546 # CM2 CT
pair_coeff     1     3    lj9_6    0.2317    4.2763 # CM2 CT2
pair_coeff     1     4   lj12_4    0.2788    4.1722 # CM2 W
pair_coeff     2     2    lj9_6    0.4690    4.5850 # CT CT
pair_coeff     2     3    lj9_6    0.3830    4.4030 # CT CT2
pair_coeff     2     4   lj12_4    0.3600    4.4780 # CT W
pair_coeff     3     3    lj9_6    0.3120    4.2210 # CT2 CT2
pair_coeff     3     4   lj12_4    0.2900    4.2960 # CT2 W
pair_coeff     4     4   lj12_4    0.8950    4.3710 # W W


bond_coeff     1    9.0000    3.0700 # CM2-CT
bond_coeff     2   17.4000    2.5380 # CM2-CT2


angle_coeff     1      sdk    1.0500  180.0000    lj9_6    0.3830    4.4030 # CT-CM2-CT2


