# Generated by CGTools - writelammpsparam on Fri Apr 10 10:24:02 EDT 2015
#pair_style      lj/sdk                    15.0
#pair_style      lj/sdk/coul/long          15.0
#pair_style      hybrid/overlay  lj/sdk 15.0  coul/long 25.0
#bond_style      harmonic
#angle_style     sdk
#angle_style     hybrid sdk harmonic
#dihedral_style  charmm
#special_bonds   lj/coul 0.0 0.0 1.0


mass     1   54.0460 # W


pair_coeff     1     1   lj12_4    0.8950    4.3710 # W W


